\* Diet *\
Minimize
Objective: 1.59 Quantity_Product_1 + 2.19 Quantity_Product_2
 + 2.99 Quantity_Product_3
Subject To
Max_Calories_Intake: 250 Quantity_Product_1 + 380 Quantity_Product_2
 + 257 Quantity_Product_3 <= 2200
Max_Fat_Intake: 13 Quantity_Product_1 + 31 Quantity_Product_2
 + 28 Quantity_Product_3 <= 100
Min_Calories_Intake: 250 Quantity_Product_1 + 380 Quantity_Product_2
 + 257 Quantity_Product_3 >= 1800
End
